\* Problem: Unknown *\

Maximize
 obj: 0 arg3(0)

Subject To
 r_1: - arg3(0) <= 0
 r_2: + arg3(0) <= 99
 r_3: - arg4(0) <= 0
 r_4: + arg4(0) <= 49
 r_5: - p0(0) + arg1(0) - 4 arg4(0) + 2 arg3(0) = 0
 r_6: - p1(0) - arg0(0) + 3 arg4(0) = 0

Bounds
 arg3(0) free
 arg4(0) free
 p0(0) free
 p1(0) free
 arg0(0) free
 arg1(0) free

Generals
 arg3(0)
 arg4(0)
 p0(0)
 p1(0)
 arg0(0)
 arg1(0)

End
